163
0 58 22 149 153 124 14 162 62 119 
107 112 8 143 34 26 32 37 2 68 
74 57 84 53 65 49 150 20 105 93 
160 36 12 161 139 25 31 86 79 144 
135 64 102 125 80 110 126 75 123 33 
140 130 40 90 145 69 146 96 24 91 
10 23 100 4 103 117 60 138 114 106 
5 116 1 70 141 11 66 128 111 59 
115 147 104 158 82 18 63 159 148 54 
142 17 121 108 95 19 133 44 134 72 
30 38 132 46 52 61 67 51 78 137 
76 120 157 43 29 81 109 94 13 28 
7 113 9 39 27 152 35 47 136 21 
71 77 15 151 131 56 98 6 55 127 
42 97 73 45 92 48 155 101 50 3 
99 89 83 85 129 154 87 41 16 118 
122 88 156 
